p wcnf 1796 1793 10
10 -10 1 
10 -12 1 
10 -14 1 
10 -16 1 
10 -18 1 
10 -20 1 
10 -22 1 
10 -24 1 
10 -26 1 
10 -28 1 
10 -31 1 
10 -34 1 
10 -37 1 
10 -40 1 
10 -43 1 
10 -46 1 
10 -49 1 
10 -52 1 
10 -55 1 
10 -59 1 
10 -63 1 
10 -67 1 
10 -71 1 
10 -75 1 
10 -79 1 
10 -83 1 
10 -87 1 
10 -91 1 
10 -96 1 
10 -101 1 
10 -106 1 
10 -111 1 
10 -116 1 
10 -121 1 
10 -126 1 
10 -131 1 
10 -136 1 
10 -142 1 
10 -148 1 
10 -154 1 
10 -160 1 
10 -166 1 
10 -172 1 
10 -178 1 
10 -184 1 
10 -190 1 
10 -197 1 
10 -204 1 
10 -211 1 
10 -218 1 
10 -225 1 
10 -232 1 
10 -239 1 
10 -246 1 
10 -253 1 
10 -261 1 
10 -269 1 
10 -277 1 
10 -285 1 
10 -293 1 
10 -301 1 
10 -309 1 
10 -317 1 
10 -325 1 
10 -334 1 
10 -343 1 
10 -352 1 
10 -361 1 
10 -370 1 
10 -379 1 
10 -388 1 
10 -397 1 
10 -406 10 
10 -410 10 
10 -414 10 
10 -418 10 
10 -422 10 
10 -426 10 
10 -430 10 
10 -434 10 
10 -438 10 
10 -443 10 
10 -448 10 
10 -453 10 
10 -458 10 
10 -463 10 
10 -468 10 
10 -473 10 
10 -478 10 
10 -484 10 
10 -490 10 
10 -496 10 
10 -502 10 
10 -508 10 
10 -514 10 
10 -520 10 
10 -526 10 
10 -533 10 
10 -540 10 
10 -547 10 
10 -554 10 
10 -561 10 
10 -568 10 
10 -575 10 
10 -582 10 
10 -590 10 
10 -598 10 
10 -606 10 
10 -614 10 
10 -622 10 
10 -630 10 
10 -638 10 
10 -646 10 
10 -655 10 
10 -664 10 
10 -673 10 
10 -682 10 
10 -691 10 
10 -700 10 
10 -709 10 
10 -718 10 
10 -728 10 
10 -738 10 
10 -748 10 
10 -758 10 
10 -768 10 
10 -778 10 
10 -788 10 
10 -798 28 406 410 414 418 422 426 430 434 
10 -802 28 406 410 414 418 422 426 430 434 
10 -806 28 406 410 414 418 422 426 430 434 
10 -810 28 406 410 414 418 422 426 430 434 
10 -814 28 406 410 414 418 422 426 430 434 
10 -818 28 406 410 414 418 422 426 430 434 
10 -822 28 406 410 414 418 422 426 430 434 
10 -826 28 406 410 414 418 422 426 430 434 
10 -831 28 406 410 414 418 422 426 430 434 
10 -836 28 406 410 414 418 422 426 430 434 
10 -841 28 406 410 414 418 422 426 430 434 
10 -846 28 406 410 414 418 422 426 430 434 
10 -851 28 406 410 414 418 422 426 430 434 
10 -856 28 406 410 414 418 422 426 430 434 
10 -861 28 406 410 414 418 422 426 430 434 
10 -867 28 406 410 414 418 422 426 430 434 
10 -873 28 406 410 414 418 422 426 430 434 
10 -879 28 406 410 414 418 422 426 430 434 
10 -885 28 406 410 414 418 422 426 430 434 
10 -891 28 406 410 414 418 422 426 430 434 
10 -897 28 406 410 414 418 422 426 430 434 
10 -903 28 406 410 414 418 422 426 430 434 
10 -910 28 406 410 414 418 422 426 430 434 
10 -917 28 406 410 414 418 422 426 430 434 
10 -924 28 406 410 414 418 422 426 430 434 
10 -931 28 406 410 414 418 422 426 430 434 
10 -938 28 406 410 414 418 422 426 430 434 
10 -945 28 406 410 414 418 422 426 430 434 
10 -952 28 406 410 414 418 422 426 430 434 
10 -960 28 406 410 414 418 422 426 430 434 
10 -968 28 406 410 414 418 422 426 430 434 
10 -976 28 406 410 414 418 422 426 430 434 
10 -984 28 406 410 414 418 422 426 430 434 
10 -992 28 406 410 414 418 422 426 430 434 
10 -1000 28 406 410 414 418 422 426 430 434 
10 -1008 28 406 410 414 418 422 426 430 434 
10 -1017 28 406 410 414 418 422 426 430 434 
10 -1026 28 406 410 414 418 422 426 430 434 
10 -1035 28 406 410 414 418 422 426 430 434 
10 -1044 28 406 410 414 418 422 426 430 434 
10 -1053 28 406 410 414 418 422 426 430 434 
10 -1062 28 406 410 414 418 422 426 430 434 
10 -1071 55 438 443 448 453 458 463 468 473 
10 -1075 55 438 443 448 453 458 463 468 473 
10 -1079 55 438 443 448 453 458 463 468 473 
10 -1083 55 438 443 448 453 458 463 468 473 
10 -1087 55 438 443 448 453 458 463 468 473 
10 -1091 55 438 443 448 453 458 463 468 473 
10 -1095 55 438 443 448 453 458 463 468 473 
10 -1100 55 438 443 448 453 458 463 468 473 
10 -1105 55 438 443 448 453 458 463 468 473 
10 -1110 55 438 443 448 453 458 463 468 473 
10 -1115 55 438 443 448 453 458 463 468 473 
10 -1120 55 438 443 448 453 458 463 468 473 
10 -1125 55 438 443 448 453 458 463 468 473 
10 -1131 55 438 443 448 453 458 463 468 473 
10 -1137 55 438 443 448 453 458 463 468 473 
10 -1143 55 438 443 448 453 458 463 468 473 
10 -1149 55 438 443 448 453 458 463 468 473 
10 -1155 55 438 443 448 453 458 463 468 473 
10 -1161 55 438 443 448 453 458 463 468 473 
10 -1168 55 438 443 448 453 458 463 468 473 
10 -1175 55 438 443 448 453 458 463 468 473 
10 -1182 55 438 443 448 453 458 463 468 473 
10 -1189 55 438 443 448 453 458 463 468 473 
10 -1196 55 438 443 448 453 458 463 468 473 
10 -1203 55 438 443 448 453 458 463 468 473 
10 -1211 55 438 443 448 453 458 463 468 473 
10 -1219 55 438 443 448 453 458 463 468 473 
10 -1227 55 438 443 448 453 458 463 468 473 
10 -1235 55 438 443 448 453 458 463 468 473 
10 -1243 55 438 443 448 453 458 463 468 473 
10 -1251 91 478 484 490 496 502 508 514 520 
10 -1255 91 478 484 490 496 502 508 514 520 
10 -1259 91 478 484 490 496 502 508 514 520 
10 -1263 91 478 484 490 496 502 508 514 520 
10 -1267 91 478 484 490 496 502 508 514 520 
10 -1271 91 478 484 490 496 502 508 514 520 
10 -1276 91 478 484 490 496 502 508 514 520 
10 -1281 91 478 484 490 496 502 508 514 520 
10 -1286 91 478 484 490 496 502 508 514 520 
10 -1291 91 478 484 490 496 502 508 514 520 
10 -1296 91 478 484 490 496 502 508 514 520 
10 -1302 91 478 484 490 496 502 508 514 520 
10 -1308 91 478 484 490 496 502 508 514 520 
10 -1314 91 478 484 490 496 502 508 514 520 
10 -1320 91 478 484 490 496 502 508 514 520 
10 -1326 91 478 484 490 496 502 508 514 520 
10 -1333 91 478 484 490 496 502 508 514 520 
10 -1340 91 478 484 490 496 502 508 514 520 
10 -1347 91 478 484 490 496 502 508 514 520 
10 -1354 91 478 484 490 496 502 508 514 520 
10 -1361 136 526 533 540 547 554 561 568 575 
10 -1365 136 526 533 540 547 554 561 568 575 
10 -1369 136 526 533 540 547 554 561 568 575 
10 -1373 136 526 533 540 547 554 561 568 575 
10 -1377 136 526 533 540 547 554 561 568 575 
10 -1382 136 526 533 540 547 554 561 568 575 
10 -1387 136 526 533 540 547 554 561 568 575 
10 -1392 136 526 533 540 547 554 561 568 575 
10 -1397 136 526 533 540 547 554 561 568 575 
10 -1403 136 526 533 540 547 554 561 568 575 
10 -1409 136 526 533 540 547 554 561 568 575 
10 -1415 136 526 533 540 547 554 561 568 575 
10 -1421 190 582 590 598 606 614 622 630 638 
10 -1425 190 582 590 598 606 614 622 630 638 
10 -1429 190 582 590 598 606 614 622 630 638 
10 -1433 190 582 590 598 606 614 622 630 638 
10 -1438 190 582 590 598 606 614 622 630 638 
10 -1443 190 582 590 598 606 614 622 630 638 
10 -1448 253 646 655 664 673 682 691 700 709 
10 -1452 253 646 655 664 673 682 691 700 709 
10 -1456 1 
10 -1458 1 
10 -1460 1 
10 -1462 1 
10 -1464 1 
10 -1466 1 
10 -1468 1 
10 -1470 1 
10 -1472 1 
10 -1474 1 
10 -1477 1 
10 -1480 1 
10 -1483 1 
10 -1486 1 
10 -1489 1 
10 -1492 1 
10 -1495 1 
10 -1498 1 
10 -1501 1 
10 -1505 1 
10 -1509 1 
10 -1513 1 
10 -1517 1 
10 -1521 1 
10 -1525 1 
10 -1529 1 
10 -1533 1 
10 -1537 1 
10 -1542 1 
10 -1547 1 
10 -1552 1 
10 -1557 1 
10 -1562 1 
10 -1567 1 
10 -1572 1 
10 -1577 1 
10 -1582 1456 
10 -1586 1456 
10 -1590 1456 
10 -1594 1456 
10 -1598 1456 
10 -1602 1456 
10 -1606 1456 
10 -1610 1456 
10 -1614 1456 
10 -1619 1456 
10 -1624 1456 
10 -1629 1456 
10 -1634 1456 
10 -1639 1456 
10 -1644 1456 
10 -1649 1456 
10 -1654 1456 
10 -1660 1456 
10 -1666 1456 
10 -1672 1456 
10 -1678 1456 
10 -1684 1456 
10 -1690 1456 
10 -1696 1456 
10 -1702 1474 1582 1586 1590 1594 1598 1602 1606 1610 
10 -1706 1474 1582 1586 1590 1594 1598 1602 1606 1610 
10 -1710 1474 1582 1586 1590 1594 1598 1602 1606 1610 
10 -1714 1474 1582 1586 1590 1594 1598 1602 1606 1610 
10 -1718 1474 1582 1586 1590 1594 1598 1602 1606 1610 
10 -1722 1474 1582 1586 1590 1594 1598 1602 1606 1610 
10 -1726 1474 1582 1586 1590 1594 1598 1602 1606 1610 
10 -1730 1474 1582 1586 1590 1594 1598 1602 1606 1610 
10 -1735 1474 1582 1586 1590 1594 1598 1602 1606 1610 
10 -1740 1474 1582 1586 1590 1594 1598 1602 1606 1610 
10 -1745 1474 1582 1586 1590 1594 1598 1602 1606 1610 
10 -1750 1474 1582 1586 1590 1594 1598 1602 1606 1610 
10 -1755 1474 1582 1586 1590 1594 1598 1602 1606 1610 
10 -1760 1474 1582 1586 1590 1594 1598 1602 1606 1610 
10 -1765 1501 1614 1619 1624 1629 1634 1639 1644 1649 
10 -1769 1501 1614 1619 1624 1629 1634 1639 1644 1649 
10 -1773 1501 1614 1619 1624 1629 1634 1639 1644 1649 
10 -1777 1501 1614 1619 1624 1629 1634 1639 1644 1649 
10 -1781 1501 1614 1619 1624 1629 1634 1639 1644 1649 
10 -1785 1501 1614 1619 1624 1629 1634 1639 1644 1649 
10 -1789 325 334 343 352 361 370 379 388 397 718 728 738 748 758 768 778 788 1008 1017 1026 1035 1044 1053 1062 1203 1211 1219 1227 1235 1243 1326 1333 1340 1347 1354 1397 1403 1409 1415 1537 1654 1660 1666 1672 1678 1684 1690 1696 
10 -1790 325 334 343 352 361 370 379 388 397 718 728 738 748 758 768 778 788 1008 1017 1026 1035 1044 1053 1062 1203 1211 1219 1227 1235 1243 1326 1333 1340 1347 1354 1397 1403 1409 1415 1537 1654 1660 1666 1672 1678 1684 1690 1696 
10 -1791 325 334 343 352 361 370 379 388 397 718 728 738 748 758 768 778 788 1008 1017 1026 1035 1044 1053 1062 1203 1211 1219 1227 1235 1243 1326 1333 1340 1347 1354 1397 1403 1409 1415 1537 1654 1660 1666 1672 1678 1684 1690 1696 
10 -1792 325 334 343 352 361 370 379 388 397 718 728 738 748 758 768 778 788 1008 1017 1026 1035 1044 1053 1062 1203 1211 1219 1227 1235 1243 1326 1333 1340 1347 1354 1397 1403 1409 1415 1537 1654 1660 1666 1672 1678 1684 1690 1696 
10 -1793 325 334 343 352 361 370 379 388 397 718 728 738 748 758 768 778 788 1008 1017 1026 1035 1044 1053 1062 1203 1211 1219 1227 1235 1243 1326 1333 1340 1347 1354 1397 1403 1409 1415 1537 1654 1660 1666 1672 1678 1684 1690 1696 
10 10 12 14 16 18 20 22 24 26 28 31 34 37 40 43 46 49 52 55 59 63 67 71 75 79 83 87 91 96 101 106 111 116 121 126 131 136 142 148 154 160 166 172 178 184 190 197 204 211 218 225 232 239 246 253 261 269 277 285 293 301 309 317 325 334 343 352 361 370 379 388 397 
10 10 12 14 16 18 20 22 24 26 28 31 34 37 40 43 46 49 52 55 59 63 67 71 75 79 83 87 91 96 101 106 111 116 121 126 131 136 142 148 154 160 166 172 178 184 190 197 204 211 218 225 232 239 246 253 261 269 277 285 293 301 309 317 325 334 343 352 361 370 379 388 397 406 410 414 418 422 426 430 434 438 443 448 453 458 463 468 473 478 484 490 496 502 508 514 520 526 533 540 547 554 561 568 575 582 590 598 606 614 622 630 638 646 655 664 673 682 691 700 709 718 728 738 748 758 768 778 788 
10 28 31 34 37 40 43 46 49 52 55 59 63 67 71 75 79 83 87 91 96 101 106 111 116 121 126 131 136 142 148 154 160 166 172 178 184 190 197 204 211 218 225 232 239 246 253 261 269 277 285 293 301 309 317 325 334 343 352 361 370 379 388 397 406 410 414 418 422 426 430 434 438 443 448 453 458 463 468 473 478 484 490 496 502 508 514 520 526 533 540 547 554 561 568 575 582 590 598 606 614 622 630 638 646 655 664 673 682 691 700 709 718 728 738 748 758 768 778 788 798 802 806 810 814 818 822 826 831 836 841 846 851 856 861 867 873 879 885 891 897 903 910 917 924 931 938 945 952 960 968 976 984 992 1000 1008 1017 1026 1035 1044 1053 1062 
10 55 59 63 67 71 75 79 83 87 91 96 101 106 111 116 121 126 131 136 142 148 154 160 166 172 178 184 190 197 204 211 218 225 232 239 246 253 261 269 277 285 293 301 309 317 325 334 343 352 361 370 379 388 397 406 410 414 418 422 426 430 434 438 443 448 453 458 463 468 473 478 484 490 496 502 508 514 520 526 533 540 547 554 561 568 575 582 590 598 606 614 622 630 638 646 655 664 673 682 691 700 709 718 728 738 748 758 768 778 788 798 802 806 810 814 818 822 826 831 836 841 846 851 856 861 867 873 879 885 891 897 903 910 917 924 931 938 945 952 960 968 976 984 992 1000 1008 1017 1026 1035 1044 1053 1062 1071 1075 1079 1083 1087 1091 1095 1100 1105 1110 1115 1120 1125 1131 1137 1143 1149 1155 1161 1168 1175 1182 1189 1196 1203 1211 1219 1227 1235 1243 
10 91 96 101 106 111 116 121 126 131 136 142 148 154 160 166 172 178 184 190 197 204 211 218 225 232 239 246 253 261 269 277 285 293 301 309 317 325 334 343 352 361 370 379 388 397 406 410 414 418 422 426 430 434 438 443 448 453 458 463 468 473 478 484 490 496 502 508 514 520 526 533 540 547 554 561 568 575 582 590 598 606 614 622 630 638 646 655 664 673 682 691 700 709 718 728 738 748 758 768 778 788 798 802 806 810 814 818 822 826 831 836 841 846 851 856 861 867 873 879 885 891 897 903 910 917 924 931 938 945 952 960 968 976 984 992 1000 1008 1017 1026 1035 1044 1053 1062 1071 1075 1079 1083 1087 1091 1095 1100 1105 1110 1115 1120 1125 1131 1137 1143 1149 1155 1161 1168 1175 1182 1189 1196 1203 1211 1219 1227 1235 1243 1251 1255 1259 1263 1267 1271 1276 1281 1286 1291 1296 1302 1308 1314 1320 1326 1333 1340 1347 1354 
10 136 142 148 154 160 166 172 178 184 190 197 204 211 218 225 232 239 246 253 261 269 277 285 293 301 309 317 325 334 343 352 361 370 379 388 397 438 443 448 453 458 463 468 473 478 484 490 496 502 508 514 520 526 533 540 547 554 561 568 575 582 590 598 606 614 622 630 638 646 655 664 673 682 691 700 709 718 728 738 748 758 768 778 788 798 802 806 810 814 818 822 826 831 836 841 846 851 856 861 867 873 879 885 891 897 903 910 917 924 931 938 945 952 960 968 976 984 992 1000 1008 1017 1026 1035 1044 1053 1062 1071 1075 1079 1083 1087 1091 1095 1100 1105 1110 1115 1120 1125 1131 1137 1143 1149 1155 1161 1168 1175 1182 1189 1196 1203 1211 1219 1227 1235 1243 1251 1255 1259 1263 1267 1271 1276 1281 1286 1291 1296 1302 1308 1314 1320 1326 1333 1340 1347 1354 1361 1365 1369 1373 1377 1382 1387 1392 1397 1403 1409 1415 
10 190 197 204 211 218 225 232 239 246 253 261 269 277 285 293 301 309 317 325 334 343 352 361 370 379 388 397 478 484 490 496 502 508 514 520 526 533 540 547 554 561 568 575 582 590 598 606 614 622 630 638 646 655 664 673 682 691 700 709 718 728 738 748 758 768 778 788 826 831 836 841 846 851 856 861 867 873 879 885 891 897 903 910 917 924 931 938 945 952 960 968 976 984 992 1000 1008 1017 1026 1035 1044 1053 1062 1071 1075 1079 1083 1087 1091 1095 1100 1105 1110 1115 1120 1125 1131 1137 1143 1149 1155 1161 1168 1175 1182 1189 1196 1203 1211 1219 1227 1235 1243 1251 1255 1259 1263 1267 1271 1276 1281 1286 1291 1296 1302 1308 1314 1320 1326 1333 1340 1347 1354 1361 1365 1369 1373 1377 1382 1387 1392 1397 1403 1409 1415 1421 1425 1429 1433 1438 1443 
10 253 261 269 277 285 293 301 309 317 325 334 343 352 361 370 379 388 397 526 533 540 547 554 561 568 575 582 590 598 606 614 622 630 638 646 655 664 673 682 691 700 709 718 728 738 748 758 768 778 788 861 867 873 879 885 891 897 903 910 917 924 931 938 945 952 960 968 976 984 992 1000 1008 1017 1026 1035 1044 1053 1062 1095 1100 1105 1110 1115 1120 1125 1131 1137 1143 1149 1155 1161 1168 1175 1182 1189 1196 1203 1211 1219 1227 1235 1243 1251 1255 1259 1263 1267 1271 1276 1281 1286 1291 1296 1302 1308 1314 1320 1326 1333 1340 1347 1354 1361 1365 1369 1373 1377 1382 1387 1392 1397 1403 1409 1415 1421 1425 1429 1433 1438 1443 1448 1452 
10 1456 1458 1460 1462 1464 1466 1468 1470 1472 1474 1477 1480 1483 1486 1489 1492 1495 1498 1501 1505 1509 1513 1517 1521 1525 1529 1533 1537 1542 1547 1552 1557 1562 1567 1572 1577 
10 1456 1458 1460 1462 1464 1466 1468 1470 1472 1474 1477 1480 1483 1486 1489 1492 1495 1498 1501 1505 1509 1513 1517 1521 1525 1529 1533 1537 1542 1547 1552 1557 1562 1567 1572 1577 1582 1586 1590 1594 1598 1602 1606 1610 1614 1619 1624 1629 1634 1639 1644 1649 1654 1660 1666 1672 1678 1684 1690 1696 
10 1474 1477 1480 1483 1486 1489 1492 1495 1498 1501 1505 1509 1513 1517 1521 1525 1529 1533 1537 1542 1547 1552 1557 1562 1567 1572 1577 1582 1586 1590 1594 1598 1602 1606 1610 1614 1619 1624 1629 1634 1639 1644 1649 1654 1660 1666 1672 1678 1684 1690 1696 1702 1706 1710 1714 1718 1722 1726 1730 1735 1740 1745 1750 1755 1760 
10 1501 1505 1509 1513 1517 1521 1525 1529 1533 1537 1542 1547 1552 1557 1562 1567 1572 1577 1582 1586 1590 1594 1598 1602 1606 1610 1614 1619 1624 1629 1634 1639 1644 1649 1654 1660 1666 1672 1678 1684 1690 1696 1702 1706 1710 1714 1718 1722 1726 1730 1735 1740 1745 1750 1755 1760 1765 1769 1773 1777 1781 1785 
10 -10 11 
10 -12 13 
10 -14 15 
10 -16 17 
10 -18 19 
10 -20 21 
10 -22 23 
10 -24 25 
10 -26 27 
10 -28 29 
10 -28 30 
10 -31 32 
10 -31 33 
10 -34 35 
10 -34 36 
10 -37 38 
10 -37 39 
10 -40 41 
10 -40 42 
10 -43 44 
10 -43 45 
10 -46 47 
10 -46 48 
10 -49 50 
10 -49 51 
10 -52 53 
10 -52 54 
10 -55 56 
10 -55 57 
10 -55 58 
10 -59 60 
10 -59 61 
10 -59 62 
10 -63 64 
10 -63 65 
10 -63 66 
10 -67 68 
10 -67 69 
10 -67 70 
10 -71 72 
10 -71 73 
10 -71 74 
10 -75 76 
10 -75 77 
10 -75 78 
10 -79 80 
10 -79 81 
10 -79 82 
10 -83 84 
10 -83 85 
10 -83 86 
10 -87 88 
10 -87 89 
10 -87 90 
10 -91 92 
10 -91 93 
10 -91 94 
10 -91 95 
10 -96 97 
10 -96 98 
10 -96 99 
10 -96 100 
10 -101 102 
10 -101 103 
10 -101 104 
10 -101 105 
10 -106 107 
10 -106 108 
10 -106 109 
10 -106 110 
10 -111 112 
10 -111 113 
10 -111 114 
10 -111 115 
10 -116 117 
10 -116 118 
10 -116 119 
10 -116 120 
10 -121 122 
10 -121 123 
10 -121 124 
10 -121 125 
10 -126 127 
10 -126 128 
10 -126 129 
10 -126 130 
10 -131 132 
10 -131 133 
10 -131 134 
10 -131 135 
10 -136 137 
10 -136 138 
10 -136 139 
10 -136 140 
10 -136 141 
10 -142 143 
10 -142 144 
10 -142 145 
10 -142 146 
10 -142 147 
10 -148 149 
10 -148 150 
10 -148 151 
10 -148 152 
10 -148 153 
10 -154 155 
10 -154 156 
10 -154 157 
10 -154 158 
10 -154 159 
10 -160 161 
10 -160 162 
10 -160 163 
10 -160 164 
10 -160 165 
10 -166 167 
10 -166 168 
10 -166 169 
10 -166 170 
10 -166 171 
10 -172 173 
10 -172 174 
10 -172 175 
10 -172 176 
10 -172 177 
10 -178 179 
10 -178 180 
10 -178 181 
10 -178 182 
10 -178 183 
10 -184 185 
10 -184 186 
10 -184 187 
10 -184 188 
10 -184 189 
10 -190 191 
10 -190 192 
10 -190 193 
10 -190 194 
10 -190 195 
10 -190 196 
10 -197 198 
10 -197 199 
10 -197 200 
10 -197 201 
10 -197 202 
10 -197 203 
10 -204 205 
10 -204 206 
10 -204 207 
10 -204 208 
10 -204 209 
10 -204 210 
10 -211 212 
10 -211 213 
10 -211 214 
10 -211 215 
10 -211 216 
10 -211 217 
10 -218 219 
10 -218 220 
10 -218 221 
10 -218 222 
10 -218 223 
10 -218 224 
10 -225 226 
10 -225 227 
10 -225 228 
10 -225 229 
10 -225 230 
10 -225 231 
10 -232 233 
10 -232 234 
10 -232 235 
10 -232 236 
10 -232 237 
10 -232 238 
10 -239 240 
10 -239 241 
10 -239 242 
10 -239 243 
10 -239 244 
10 -239 245 
10 -246 247 
10 -246 248 
10 -246 249 
10 -246 250 
10 -246 251 
10 -246 252 
10 -253 254 
10 -253 255 
10 -253 256 
10 -253 257 
10 -253 258 
10 -253 259 
10 -253 260 
10 -261 262 
10 -261 263 
10 -261 264 
10 -261 265 
10 -261 266 
10 -261 267 
10 -261 268 
10 -269 270 
10 -269 271 
10 -269 272 
10 -269 273 
10 -269 274 
10 -269 275 
10 -269 276 
10 -277 278 
10 -277 279 
10 -277 280 
10 -277 281 
10 -277 282 
10 -277 283 
10 -277 284 
10 -285 286 
10 -285 287 
10 -285 288 
10 -285 289 
10 -285 290 
10 -285 291 
10 -285 292 
10 -293 294 
10 -293 295 
10 -293 296 
10 -293 297 
10 -293 298 
10 -293 299 
10 -293 300 
10 -301 302 
10 -301 303 
10 -301 304 
10 -301 305 
10 -301 306 
10 -301 307 
10 -301 308 
10 -309 310 
10 -309 311 
10 -309 312 
10 -309 313 
10 -309 314 
10 -309 315 
10 -309 316 
10 -317 318 
10 -317 319 
10 -317 320 
10 -317 321 
10 -317 322 
10 -317 323 
10 -317 324 
10 -325 326 
10 -325 327 
10 -325 328 
10 -325 329 
10 -325 330 
10 -325 331 
10 -325 332 
10 -325 333 
10 -334 335 
10 -334 336 
10 -334 337 
10 -334 338 
10 -334 339 
10 -334 340 
10 -334 341 
10 -334 342 
10 -343 344 
10 -343 345 
10 -343 346 
10 -343 347 
10 -343 348 
10 -343 349 
10 -343 350 
10 -343 351 
10 -352 353 
10 -352 354 
10 -352 355 
10 -352 356 
10 -352 357 
10 -352 358 
10 -352 359 
10 -352 360 
10 -361 362 
10 -361 363 
10 -361 364 
10 -361 365 
10 -361 366 
10 -361 367 
10 -361 368 
10 -361 369 
10 -370 371 
10 -370 372 
10 -370 373 
10 -370 374 
10 -370 375 
10 -370 376 
10 -370 377 
10 -370 378 
10 -379 380 
10 -379 381 
10 -379 382 
10 -379 383 
10 -379 384 
10 -379 385 
10 -379 386 
10 -379 387 
10 -388 389 
10 -388 390 
10 -388 391 
10 -388 392 
10 -388 393 
10 -388 394 
10 -388 395 
10 -388 396 
10 -397 398 
10 -397 399 
10 -397 400 
10 -397 401 
10 -397 402 
10 -397 403 
10 -397 404 
10 -397 405 
10 -406 407 
10 -406 408 
10 -406 409 
10 -410 411 
10 -410 412 
10 -410 413 
10 -414 415 
10 -414 416 
10 -414 417 
10 -418 419 
10 -418 420 
10 -418 421 
10 -422 423 
10 -422 424 
10 -422 425 
10 -426 427 
10 -426 428 
10 -426 429 
10 -430 431 
10 -430 432 
10 -430 433 
10 -434 435 
10 -434 436 
10 -434 437 
10 -438 439 
10 -438 440 
10 -438 441 
10 -438 442 
10 -443 444 
10 -443 445 
10 -443 446 
10 -443 447 
10 -448 449 
10 -448 450 
10 -448 451 
10 -448 452 
10 -453 454 
10 -453 455 
10 -453 456 
10 -453 457 
10 -458 459 
10 -458 460 
10 -458 461 
10 -458 462 
10 -463 464 
10 -463 465 
10 -463 466 
10 -463 467 
10 -468 469 
10 -468 470 
10 -468 471 
10 -468 472 
10 -473 474 
10 -473 475 
10 -473 476 
10 -473 477 
10 -478 479 
10 -478 480 
10 -478 481 
10 -478 482 
10 -478 483 
10 -484 485 
10 -484 486 
10 -484 487 
10 -484 488 
10 -484 489 
10 -490 491 
10 -490 492 
10 -490 493 
10 -490 494 
10 -490 495 
10 -496 497 
10 -496 498 
10 -496 499 
10 -496 500 
10 -496 501 
10 -502 503 
10 -502 504 
10 -502 505 
10 -502 506 
10 -502 507 
10 -508 509 
10 -508 510 
10 -508 511 
10 -508 512 
10 -508 513 
10 -514 515 
10 -514 516 
10 -514 517 
10 -514 518 
10 -514 519 
10 -520 521 
10 -520 522 
10 -520 523 
10 -520 524 
10 -520 525 
10 -526 527 
10 -526 528 
10 -526 529 
10 -526 530 
10 -526 531 
10 -526 532 
10 -533 534 
10 -533 535 
10 -533 536 
10 -533 537 
10 -533 538 
10 -533 539 
10 -540 541 
10 -540 542 
10 -540 543 
10 -540 544 
10 -540 545 
10 -540 546 
10 -547 548 
10 -547 549 
10 -547 550 
10 -547 551 
10 -547 552 
10 -547 553 
10 -554 555 
10 -554 556 
10 -554 557 
10 -554 558 
10 -554 559 
10 -554 560 
10 -561 562 
10 -561 563 
10 -561 564 
10 -561 565 
10 -561 566 
10 -561 567 
10 -568 569 
10 -568 570 
10 -568 571 
10 -568 572 
10 -568 573 
10 -568 574 
10 -575 576 
10 -575 577 
10 -575 578 
10 -575 579 
10 -575 580 
10 -575 581 
10 -582 583 
10 -582 584 
10 -582 585 
10 -582 586 
10 -582 587 
10 -582 588 
10 -582 589 
10 -590 591 
10 -590 592 
10 -590 593 
10 -590 594 
10 -590 595 
10 -590 596 
10 -590 597 
10 -598 599 
10 -598 600 
10 -598 601 
10 -598 602 
10 -598 603 
10 -598 604 
10 -598 605 
10 -606 607 
10 -606 608 
10 -606 609 
10 -606 610 
10 -606 611 
10 -606 612 
10 -606 613 
10 -614 615 
10 -614 616 
10 -614 617 
10 -614 618 
10 -614 619 
10 -614 620 
10 -614 621 
10 -622 623 
10 -622 624 
10 -622 625 
10 -622 626 
10 -622 627 
10 -622 628 
10 -622 629 
10 -630 631 
10 -630 632 
10 -630 633 
10 -630 634 
10 -630 635 
10 -630 636 
10 -630 637 
10 -638 639 
10 -638 640 
10 -638 641 
10 -638 642 
10 -638 643 
10 -638 644 
10 -638 645 
10 -646 647 
10 -646 648 
10 -646 649 
10 -646 650 
10 -646 651 
10 -646 652 
10 -646 653 
10 -646 654 
10 -655 656 
10 -655 657 
10 -655 658 
10 -655 659 
10 -655 660 
10 -655 661 
10 -655 662 
10 -655 663 
10 -664 665 
10 -664 666 
10 -664 667 
10 -664 668 
10 -664 669 
10 -664 670 
10 -664 671 
10 -664 672 
10 -673 674 
10 -673 675 
10 -673 676 
10 -673 677 
10 -673 678 
10 -673 679 
10 -673 680 
10 -673 681 
10 -682 683 
10 -682 684 
10 -682 685 
10 -682 686 
10 -682 687 
10 -682 688 
10 -682 689 
10 -682 690 
10 -691 692 
10 -691 693 
10 -691 694 
10 -691 695 
10 -691 696 
10 -691 697 
10 -691 698 
10 -691 699 
10 -700 701 
10 -700 702 
10 -700 703 
10 -700 704 
10 -700 705 
10 -700 706 
10 -700 707 
10 -700 708 
10 -709 710 
10 -709 711 
10 -709 712 
10 -709 713 
10 -709 714 
10 -709 715 
10 -709 716 
10 -709 717 
10 -718 719 
10 -718 720 
10 -718 721 
10 -718 722 
10 -718 723 
10 -718 724 
10 -718 725 
10 -718 726 
10 -718 727 
10 -728 729 
10 -728 730 
10 -728 731 
10 -728 732 
10 -728 733 
10 -728 734 
10 -728 735 
10 -728 736 
10 -728 737 
10 -738 739 
10 -738 740 
10 -738 741 
10 -738 742 
10 -738 743 
10 -738 744 
10 -738 745 
10 -738 746 
10 -738 747 
10 -748 749 
10 -748 750 
10 -748 751 
10 -748 752 
10 -748 753 
10 -748 754 
10 -748 755 
10 -748 756 
10 -748 757 
10 -758 759 
10 -758 760 
10 -758 761 
10 -758 762 
10 -758 763 
10 -758 764 
10 -758 765 
10 -758 766 
10 -758 767 
10 -768 769 
10 -768 770 
10 -768 771 
10 -768 772 
10 -768 773 
10 -768 774 
10 -768 775 
10 -768 776 
10 -768 777 
10 -778 779 
10 -778 780 
10 -778 781 
10 -778 782 
10 -778 783 
10 -778 784 
10 -778 785 
10 -778 786 
10 -778 787 
10 -788 789 
10 -788 790 
10 -788 791 
10 -788 792 
10 -788 793 
10 -788 794 
10 -788 795 
10 -788 796 
10 -788 797 
10 -798 799 
10 -798 800 
10 -798 801 
10 -802 803 
10 -802 804 
10 -802 805 
10 -806 807 
10 -806 808 
10 -806 809 
10 -810 811 
10 -810 812 
10 -810 813 
10 -814 815 
10 -814 816 
10 -814 817 
10 -818 819 
10 -818 820 
10 -818 821 
10 -822 823 
10 -822 824 
10 -822 825 
10 -826 827 
10 -826 828 
10 -826 829 
10 -826 830 
10 -831 832 
10 -831 833 
10 -831 834 
10 -831 835 
10 -836 837 
10 -836 838 
10 -836 839 
10 -836 840 
10 -841 842 
10 -841 843 
10 -841 844 
10 -841 845 
10 -846 847 
10 -846 848 
10 -846 849 
10 -846 850 
10 -851 852 
10 -851 853 
10 -851 854 
10 -851 855 
10 -856 857 
10 -856 858 
10 -856 859 
10 -856 860 
10 -861 862 
10 -861 863 
10 -861 864 
10 -861 865 
10 -861 866 
10 -867 868 
10 -867 869 
10 -867 870 
10 -867 871 
10 -867 872 
10 -873 874 
10 -873 875 
10 -873 876 
10 -873 877 
10 -873 878 
10 -879 880 
10 -879 881 
10 -879 882 
10 -879 883 
10 -879 884 
10 -885 886 
10 -885 887 
10 -885 888 
10 -885 889 
10 -885 890 
10 -891 892 
10 -891 893 
10 -891 894 
10 -891 895 
10 -891 896 
10 -897 898 
10 -897 899 
10 -897 900 
10 -897 901 
10 -897 902 
10 -903 904 
10 -903 905 
10 -903 906 
10 -903 907 
10 -903 908 
10 -903 909 
10 -910 911 
10 -910 912 
10 -910 913 
10 -910 914 
10 -910 915 
10 -910 916 
10 -917 918 
10 -917 919 
10 -917 920 
10 -917 921 
10 -917 922 
10 -917 923 
10 -924 925 
10 -924 926 
10 -924 927 
10 -924 928 
10 -924 929 
10 -924 930 
10 -931 932 
10 -931 933 
10 -931 934 
10 -931 935 
10 -931 936 
10 -931 937 
10 -938 939 
10 -938 940 
10 -938 941 
10 -938 942 
10 -938 943 
10 -938 944 
10 -945 946 
10 -945 947 
10 -945 948 
10 -945 949 
10 -945 950 
10 -945 951 
10 -952 953 
10 -952 954 
10 -952 955 
10 -952 956 
10 -952 957 
10 -952 958 
10 -952 959 
10 -960 961 
10 -960 962 
10 -960 963 
10 -960 964 
10 -960 965 
10 -960 966 
10 -960 967 
10 -968 969 
10 -968 970 
10 -968 971 
10 -968 972 
10 -968 973 
10 -968 974 
10 -968 975 
10 -976 977 
10 -976 978 
10 -976 979 
10 -976 980 
10 -976 981 
10 -976 982 
10 -976 983 
10 -984 985 
10 -984 986 
10 -984 987 
10 -984 988 
10 -984 989 
10 -984 990 
10 -984 991 
10 -992 993 
10 -992 994 
10 -992 995 
10 -992 996 
10 -992 997 
10 -992 998 
10 -992 999 
10 -1000 1001 
10 -1000 1002 
10 -1000 1003 
10 -1000 1004 
10 -1000 1005 
10 -1000 1006 
10 -1000 1007 
10 -1008 1009 
10 -1008 1010 
10 -1008 1011 
10 -1008 1012 
10 -1008 1013 
10 -1008 1014 
10 -1008 1015 
10 -1008 1016 
10 -1017 1018 
10 -1017 1019 
10 -1017 1020 
10 -1017 1021 
10 -1017 1022 
10 -1017 1023 
10 -1017 1024 
10 -1017 1025 
10 -1026 1027 
10 -1026 1028 
10 -1026 1029 
10 -1026 1030 
10 -1026 1031 
10 -1026 1032 
10 -1026 1033 
10 -1026 1034 
10 -1035 1036 
10 -1035 1037 
10 -1035 1038 
10 -1035 1039 
10 -1035 1040 
10 -1035 1041 
10 -1035 1042 
10 -1035 1043 
10 -1044 1045 
10 -1044 1046 
10 -1044 1047 
10 -1044 1048 
10 -1044 1049 
10 -1044 1050 
10 -1044 1051 
10 -1044 1052 
10 -1053 1054 
10 -1053 1055 
10 -1053 1056 
10 -1053 1057 
10 -1053 1058 
10 -1053 1059 
10 -1053 1060 
10 -1053 1061 
10 -1062 1063 
10 -1062 1064 
10 -1062 1065 
10 -1062 1066 
10 -1062 1067 
10 -1062 1068 
10 -1062 1069 
10 -1062 1070 
10 -1071 1072 
10 -1071 1073 
10 -1071 1074 
10 -1075 1076 
10 -1075 1077 
10 -1075 1078 
10 -1079 1080 
10 -1079 1081 
10 -1079 1082 
10 -1083 1084 
10 -1083 1085 
10 -1083 1086 
10 -1087 1088 
10 -1087 1089 
10 -1087 1090 
10 -1091 1092 
10 -1091 1093 
10 -1091 1094 
10 -1095 1096 
10 -1095 1097 
10 -1095 1098 
10 -1095 1099 
10 -1100 1101 
10 -1100 1102 
10 -1100 1103 
10 -1100 1104 
10 -1105 1106 
10 -1105 1107 
10 -1105 1108 
10 -1105 1109 
10 -1110 1111 
10 -1110 1112 
10 -1110 1113 
10 -1110 1114 
10 -1115 1116 
10 -1115 1117 
10 -1115 1118 
10 -1115 1119 
10 -1120 1121 
10 -1120 1122 
10 -1120 1123 
10 -1120 1124 
10 -1125 1126 
10 -1125 1127 
10 -1125 1128 
10 -1125 1129 
10 -1125 1130 
10 -1131 1132 
10 -1131 1133 
10 -1131 1134 
10 -1131 1135 
10 -1131 1136 
10 -1137 1138 
10 -1137 1139 
10 -1137 1140 
10 -1137 1141 
10 -1137 1142 
10 -1143 1144 
10 -1143 1145 
10 -1143 1146 
10 -1143 1147 
10 -1143 1148 
10 -1149 1150 
10 -1149 1151 
10 -1149 1152 
10 -1149 1153 
10 -1149 1154 
10 -1155 1156 
10 -1155 1157 
10 -1155 1158 
10 -1155 1159 
10 -1155 1160 
10 -1161 1162 
10 -1161 1163 
10 -1161 1164 
10 -1161 1165 
10 -1161 1166 
10 -1161 1167 
10 -1168 1169 
10 -1168 1170 
10 -1168 1171 
10 -1168 1172 
10 -1168 1173 
10 -1168 1174 
10 -1175 1176 
10 -1175 1177 
10 -1175 1178 
10 -1175 1179 
10 -1175 1180 
10 -1175 1181 
10 -1182 1183 
10 -1182 1184 
10 -1182 1185 
10 -1182 1186 
10 -1182 1187 
10 -1182 1188 
10 -1189 1190 
10 -1189 1191 
10 -1189 1192 
10 -1189 1193 
10 -1189 1194 
10 -1189 1195 
10 -1196 1197 
10 -1196 1198 
10 -1196 1199 
10 -1196 1200 
10 -1196 1201 
10 -1196 1202 
10 -1203 1204 
10 -1203 1205 
10 -1203 1206 
10 -1203 1207 
10 -1203 1208 
10 -1203 1209 
10 -1203 1210 
10 -1211 1212 
10 -1211 1213 
10 -1211 1214 
10 -1211 1215 
10 -1211 1216 
10 -1211 1217 
10 -1211 1218 
10 -1219 1220 
10 -1219 1221 
10 -1219 1222 
10 -1219 1223 
10 -1219 1224 
10 -1219 1225 
10 -1219 1226 
10 -1227 1228 
10 -1227 1229 
10 -1227 1230 
10 -1227 1231 
10 -1227 1232 
10 -1227 1233 
10 -1227 1234 
10 -1235 1236 
10 -1235 1237 
10 -1235 1238 
10 -1235 1239 
10 -1235 1240 
10 -1235 1241 
10 -1235 1242 
10 -1243 1244 
10 -1243 1245 
10 -1243 1246 
10 -1243 1247 
10 -1243 1248 
10 -1243 1249 
10 -1243 1250 
10 -1251 1252 
10 -1251 1253 
10 -1251 1254 
10 -1255 1256 
10 -1255 1257 
10 -1255 1258 
10 -1259 1260 
10 -1259 1261 
10 -1259 1262 
10 -1263 1264 
10 -1263 1265 
10 -1263 1266 
10 -1267 1268 
10 -1267 1269 
10 -1267 1270 
10 -1271 1272 
10 -1271 1273 
10 -1271 1274 
10 -1271 1275 
10 -1276 1277 
10 -1276 1278 
10 -1276 1279 
10 -1276 1280 
10 -1281 1282 
10 -1281 1283 
10 -1281 1284 
10 -1281 1285 
10 -1286 1287 
10 -1286 1288 
10 -1286 1289 
10 -1286 1290 
10 -1291 1292 
10 -1291 1293 
10 -1291 1294 
10 -1291 1295 
10 -1296 1297 
10 -1296 1298 
10 -1296 1299 
10 -1296 1300 
10 -1296 1301 
10 -1302 1303 
10 -1302 1304 
10 -1302 1305 
10 -1302 1306 
10 -1302 1307 
10 -1308 1309 
10 -1308 1310 
10 -1308 1311 
10 -1308 1312 
10 -1308 1313 
10 -1314 1315 
10 -1314 1316 
10 -1314 1317 
10 -1314 1318 
10 -1314 1319 
10 -1320 1321 
10 -1320 1322 
10 -1320 1323 
10 -1320 1324 
10 -1320 1325 
10 -1326 1327 
10 -1326 1328 
10 -1326 1329 
10 -1326 1330 
10 -1326 1331 
10 -1326 1332 
10 -1333 1334 
10 -1333 1335 
10 -1333 1336 
10 -1333 1337 
10 -1333 1338 
10 -1333 1339 
10 -1340 1341 
10 -1340 1342 
10 -1340 1343 
10 -1340 1344 
10 -1340 1345 
10 -1340 1346 
10 -1347 1348 
10 -1347 1349 
10 -1347 1350 
10 -1347 1351 
10 -1347 1352 
10 -1347 1353 
10 -1354 1355 
10 -1354 1356 
10 -1354 1357 
10 -1354 1358 
10 -1354 1359 
10 -1354 1360 
10 -1361 1362 
10 -1361 1363 
10 -1361 1364 
10 -1365 1366 
10 -1365 1367 
10 -1365 1368 
10 -1369 1370 
10 -1369 1371 
10 -1369 1372 
10 -1373 1374 
10 -1373 1375 
10 -1373 1376 
10 -1377 1378 
10 -1377 1379 
10 -1377 1380 
10 -1377 1381 
10 -1382 1383 
10 -1382 1384 
10 -1382 1385 
10 -1382 1386 
10 -1387 1388 
10 -1387 1389 
10 -1387 1390 
10 -1387 1391 
10 -1392 1393 
10 -1392 1394 
10 -1392 1395 
10 -1392 1396 
10 -1397 1398 
10 -1397 1399 
10 -1397 1400 
10 -1397 1401 
10 -1397 1402 
10 -1403 1404 
10 -1403 1405 
10 -1403 1406 
10 -1403 1407 
10 -1403 1408 
10 -1409 1410 
10 -1409 1411 
10 -1409 1412 
10 -1409 1413 
10 -1409 1414 
10 -1415 1416 
10 -1415 1417 
10 -1415 1418 
10 -1415 1419 
10 -1415 1420 
10 -1421 1422 
10 -1421 1423 
10 -1421 1424 
10 -1425 1426 
10 -1425 1427 
10 -1425 1428 
10 -1429 1430 
10 -1429 1431 
10 -1429 1432 
10 -1433 1434 
10 -1433 1435 
10 -1433 1436 
10 -1433 1437 
10 -1438 1439 
10 -1438 1440 
10 -1438 1441 
10 -1438 1442 
10 -1443 1444 
10 -1443 1445 
10 -1443 1446 
10 -1443 1447 
10 -1448 1449 
10 -1448 1450 
10 -1448 1451 
10 -1452 1453 
10 -1452 1454 
10 -1452 1455 
10 -1456 1457 
10 -1458 1459 
10 -1460 1461 
10 -1462 1463 
10 -1464 1465 
10 -1466 1467 
10 -1468 1469 
10 -1470 1471 
10 -1472 1473 
10 -1474 1475 
10 -1474 1476 
10 -1477 1478 
10 -1477 1479 
10 -1480 1481 
10 -1480 1482 
10 -1483 1484 
10 -1483 1485 
10 -1486 1487 
10 -1486 1488 
10 -1489 1490 
10 -1489 1491 
10 -1492 1493 
10 -1492 1494 
10 -1495 1496 
10 -1495 1497 
10 -1498 1499 
10 -1498 1500 
10 -1501 1502 
10 -1501 1503 
10 -1501 1504 
10 -1505 1506 
10 -1505 1507 
10 -1505 1508 
10 -1509 1510 
10 -1509 1511 
10 -1509 1512 
10 -1513 1514 
10 -1513 1515 
10 -1513 1516 
10 -1517 1518 
10 -1517 1519 
10 -1517 1520 
10 -1521 1522 
10 -1521 1523 
10 -1521 1524 
10 -1525 1526 
10 -1525 1527 
10 -1525 1528 
10 -1529 1530 
10 -1529 1531 
10 -1529 1532 
10 -1533 1534 
10 -1533 1535 
10 -1533 1536 
10 -1537 1538 
10 -1537 1539 
10 -1537 1540 
10 -1537 1541 
10 -1542 1543 
10 -1542 1544 
10 -1542 1545 
10 -1542 1546 
10 -1547 1548 
10 -1547 1549 
10 -1547 1550 
10 -1547 1551 
10 -1552 1553 
10 -1552 1554 
10 -1552 1555 
10 -1552 1556 
10 -1557 1558 
10 -1557 1559 
10 -1557 1560 
10 -1557 1561 
10 -1562 1563 
10 -1562 1564 
10 -1562 1565 
10 -1562 1566 
10 -1567 1568 
10 -1567 1569 
10 -1567 1570 
10 -1567 1571 
10 -1572 1573 
10 -1572 1574 
10 -1572 1575 
10 -1572 1576 
10 -1577 1578 
10 -1577 1579 
10 -1577 1580 
10 -1577 1581 
10 -1582 1583 
10 -1582 1584 
10 -1582 1585 
10 -1586 1587 
10 -1586 1588 
10 -1586 1589 
10 -1590 1591 
10 -1590 1592 
10 -1590 1593 
10 -1594 1595 
10 -1594 1596 
10 -1594 1597 
10 -1598 1599 
10 -1598 1600 
10 -1598 1601 
10 -1602 1603 
10 -1602 1604 
10 -1602 1605 
10 -1606 1607 
10 -1606 1608 
10 -1606 1609 
10 -1610 1611 
10 -1610 1612 
10 -1610 1613 
10 -1614 1615 
10 -1614 1616 
10 -1614 1617 
10 -1614 1618 
10 -1619 1620 
10 -1619 1621 
10 -1619 1622 
10 -1619 1623 
10 -1624 1625 
10 -1624 1626 
10 -1624 1627 
10 -1624 1628 
10 -1629 1630 
10 -1629 1631 
10 -1629 1632 
10 -1629 1633 
10 -1634 1635 
10 -1634 1636 
10 -1634 1637 
10 -1634 1638 
10 -1639 1640 
10 -1639 1641 
10 -1639 1642 
10 -1639 1643 
10 -1644 1645 
10 -1644 1646 
10 -1644 1647 
10 -1644 1648 
10 -1649 1650 
10 -1649 1651 
10 -1649 1652 
10 -1649 1653 
10 -1654 1655 
10 -1654 1656 
10 -1654 1657 
10 -1654 1658 
10 -1654 1659 
10 -1660 1661 
10 -1660 1662 
10 -1660 1663 
10 -1660 1664 
10 -1660 1665 
10 -1666 1667 
10 -1666 1668 
10 -1666 1669 
10 -1666 1670 
10 -1666 1671 
10 -1672 1673 
10 -1672 1674 
10 -1672 1675 
10 -1672 1676 
10 -1672 1677 
10 -1678 1679 
10 -1678 1680 
10 -1678 1681 
10 -1678 1682 
10 -1678 1683 
10 -1684 1685 
10 -1684 1686 
10 -1684 1687 
10 -1684 1688 
10 -1684 1689 
10 -1690 1691 
10 -1690 1692 
10 -1690 1693 
10 -1690 1694 
10 -1690 1695 
10 -1696 1697 
10 -1696 1698 
10 -1696 1699 
10 -1696 1700 
10 -1696 1701 
10 -1702 1703 
10 -1702 1704 
10 -1702 1705 
10 -1706 1707 
10 -1706 1708 
10 -1706 1709 
10 -1710 1711 
10 -1710 1712 
10 -1710 1713 
10 -1714 1715 
10 -1714 1716 
10 -1714 1717 
10 -1718 1719 
10 -1718 1720 
10 -1718 1721 
10 -1722 1723 
10 -1722 1724 
10 -1722 1725 
10 -1726 1727 
10 -1726 1728 
10 -1726 1729 
10 -1730 1731 
10 -1730 1732 
10 -1730 1733 
10 -1730 1734 
10 -1735 1736 
10 -1735 1737 
10 -1735 1738 
10 -1735 1739 
10 -1740 1741 
10 -1740 1742 
10 -1740 1743 
10 -1740 1744 
10 -1745 1746 
10 -1745 1747 
10 -1745 1748 
10 -1745 1749 
10 -1750 1751 
10 -1750 1752 
10 -1750 1753 
10 -1750 1754 
10 -1755 1756 
10 -1755 1757 
10 -1755 1758 
10 -1755 1759 
10 -1760 1761 
10 -1760 1762 
10 -1760 1763 
10 -1760 1764 
10 -1765 1766 
10 -1765 1767 
10 -1765 1768 
10 -1769 1770 
10 -1769 1771 
10 -1769 1772 
10 -1773 1774 
10 -1773 1775 
10 -1773 1776 
10 -1777 1778 
10 -1777 1779 
10 -1777 1780 
10 -1781 1782 
10 -1781 1783 
10 -1781 1784 
10 -1785 1786 
10 -1785 1787 
10 -1785 1788 
